p cnf 939 3785
-1 582 0 
-2 582 0 
-2 587 0 
-2 569 0 
-2 556 0 
-2 585 0 
-3 578 0 
-4 554 0 
-5 556 0 
267 -285 0 
-267 -274 0 
-267 -275 0 
-267 -315 0 
-267 -304 0 
-267 -292 0 
-267 -284 0 
-267 -290 0 
-267 -310 0 
-267 -312 0 
-271 -299 0 
-271 -298 0 
-271 -307 0 
-271 -311 0 
-271 -281 0 
-272 -325 0 
-272 -300 0 
-272 -295 0 
-272 -285 0 
-272 -274 0 
-272 -279 0 
-272 -318 0 
-272 -286 0 
-272 -280 0 
-272 -304 0 
-272 -292 0 
-272 -284 0 
-272 -290 0 
-272 -310 0 
-272 -312 0 
-273 -326 0 
-273 -325 0 
-273 -316 0 
-273 -304 0 
-273 -300 0 
-273 -295 0 
-273 -282 0 
-274 -310 0 
-274 -316 0 
-274 -285 0 
-274 -302 0 
-274 -292 0 
-274 -284 0 
-274 -290 0 
-274 -312 0 
-275 -300 0 
-275 -295 0 
-275 -315 0 
-275 -325 0 
-275 -304 0 
-277 -293 0 
-277 -315 0 
-277 -318 0 
-277 -314 0 
-278 -294 0 
-278 -313 0 
-278 -288 0 
-278 -291 0 
-278 -324 0 
-278 -297 0 
-278 -283 0 
-279 -325 0 
-279 -300 0 
-279 -295 0 
-279 -318 0 
-279 -286 0 
-279 -280 0 
-279 -304 0 
-280 -318 0 
-280 -325 0 
-280 -286 0 
-281 -298 0 
-281 -299 0 
-281 -307 0 
-281 -311 0 
-282 -316 0 
-282 -300 0 
-282 -326 0 
-282 -295 0 
-283 -324 0 
-283 -313 0 
-283 -297 0 
-283 -291 0 
-283 -294 0 
-283 -288 0 
-284 -316 0 
-284 -310 0 
-284 -285 0 
-284 -292 0 
-284 -290 0 
-284 -312 0 
-284 -302 0 
-285 -310 0 
-285 -316 0 
-285 -302 0 
-285 -292 0 
-285 -290 0 
-285 -312 0 
-286 -325 0 
-286 -318 0 
-286 -304 0 
-286 -300 0 
-286 -295 0 
-288 -294 0 
-288 -313 0 
-288 -291 0 
-288 -324 0 
-288 -297 0 
-290 -316 0 
-290 -292 0 
-290 -310 0 
-290 -312 0 
-290 -302 0 
-291 -313 0 
-291 -297 0 
-291 -294 0 
-291 -324 0 
-292 -316 0 
-292 -310 0 
-292 -312 0 
-292 -302 0 
-293 -318 0 
-293 -315 0 
-293 -314 0 
-294 -313 0 
-294 -324 0 
-294 -297 0 
-295 -326 0 
-295 -300 0 
-295 -315 0 
-295 -316 0 
-295 -325 0 
-295 -304 0 
-295 -318 0 
-297 -313 0 
-297 -324 0 
-298 -299 0 
-298 -307 0 
-298 -311 0 
-299 -307 0 
-299 -311 0 
-300 -304 0 
-300 -315 0 
-300 -318 0 
-300 -326 0 
-300 -316 0 
-302 -310 0 
-302 -312 0 
-304 -326 0 
-304 -318 0 
-304 -316 0 
-304 -315 0 
-304 -325 0 
-307 -311 0 
-310 -316 0 
-310 -312 0 
-312 -316 0 
-313 -324 0 
-314 -318 0 
-314 -315 0 
-315 -325 0 
-316 -325 0 
-316 -326 0 
-318 -325 0 
-325 -326 0 
-808 362 402 0 
-809 387 0 
-810 391 0 
-811 377 411 367 0 
-812 354 368 383 0 
-813 369 374 380 0 
-814 409 0 
-815 339 0 
-816 401 331 352 0 
-817 408 0 
-818 358 0 
-819 349 0 
-820 373 0 
-821 351 0 
-822 365 0 
-823 375 0 
-824 327 394 388 335 0 
-825 357 0 
-826 356 0 
-827 376 371 397 0 
-828 386 370 328 0 
-829 399 378 364 0 
-830 381 0 
-831 385 0 
-832 390 0 
-833 395 0 
-834 396 0 
-835 348 0 
-836 350 0 
-837 329 0 
-838 398 344 359 0 
-839 334 360 0 
-840 337 403 0 
-841 338 405 0 
-842 342 346 0 
-843 404 0 
-844 407 0 
-845 363 389 340 332 0 
-846 410 0 
-847 353 382 400 0 
-848 333 392 384 0 
-849 406 0 
-850 336 330 379 0 
-851 372 347 393 341 0 
-852 345 343 366 0 
-853 361 355 0 
-327 -402 0 
-327 -362 0 
-327 -355 0 
-327 -335 0 
-327 -388 0 
-327 -394 0 
-327 -361 0 
-328 -403 0 
-328 -394 0 
-328 -389 0 
-328 -360 0 
-328 -355 0 
-328 -347 0 
-328 -397 0 
-328 -399 0 
-328 -364 0 
-328 -371 0 
-328 -386 0 
-328 -378 0 
-328 -370 0 
-328 -376 0 
-328 -334 0 
-328 -337 0 
-328 -361 0 
-330 -405 0 
-330 -402 0 
-330 -393 0 
-330 -388 0 
-330 -379 0 
-330 -366 0 
-330 -346 0 
-330 -340 0 
-330 -352 0 
-330 -331 0 
-330 -343 0 
-330 -401 0 
-330 -362 0 
-330 -345 0 
-330 -336 0 
-330 -338 0 
-330 -342 0 
-331 -352 0 
-331 -379 0 
-331 -346 0 
-331 -402 0 
-331 -405 0 
-331 -340 0 
-331 -388 0 
-331 -393 0 
-331 -366 0 
-331 -336 0 
-331 -343 0 
-331 -401 0 
-331 -345 0 
-332 -403 0 
-332 -346 0 
-332 -363 0 
-332 -389 0 
-332 -337 0 
-332 -340 0 
-332 -342 0 
-333 -398 0 
-333 -383 0 
-333 -368 0 
-333 -359 0 
-333 -354 0 
-333 -344 0 
-333 -384 0 
-333 -392 0 
-334 -405 0 
-334 -399 0 
-334 -397 0 
-334 -393 0 
-334 -378 0 
-334 -376 0 
-334 -370 0 
-334 -347 0 
-334 -341 0 
-334 -360 0 
-334 -338 0 
-334 -372 0 
-335 -402 0 
-335 -355 0 
-335 -388 0 
-335 -362 0 
-335 -394 0 
-335 -361 0 
-336 -401 0 
-336 -366 0 
-336 -352 0 
-336 -343 0 
-336 -379 0 
-336 -345 0 
-337 -399 0 
-337 -397 0 
-337 -389 0 
-337 -378 0 
-337 -376 0 
-337 -370 0 
-337 -346 0 
-337 -340 0 
-337 -403 0 
-337 -342 0 
-337 -363 0 
-338 -401 0 
-338 -393 0 
-338 -379 0 
-338 -360 0 
-338 -352 0 
-338 -347 0 
-338 -343 0 
-338 -341 0 
-338 -405 0 
-338 -372 0 
-338 -345 0 
-340 -403 0 
-340 -366 0 
-340 -346 0 
-340 -342 0 
-340 -389 0 
-340 -363 0 
-340 -343 0 
-340 -401 0 
-340 -379 0 
-340 -352 0 
-340 -345 0 
-341 -405 0 
-341 -360 0 
-341 -372 0 
-341 -347 0 
-341 -393 0 
-342 -403 0 
-342 -401 0 
-342 -389 0 
-342 -379 0 
-342 -352 0 
-342 -343 0 
-342 -346 0 
-342 -363 0 
-342 -345 0 
-343 -405 0 
-343 -402 0 
-343 -393 0 
-343 -388 0 
-343 -379 0 
-343 -366 0 
-343 -346 0 
-343 -352 0 
-343 -401 0 
-343 -362 0 
-343 -345 0 
-344 -383 0 
-344 -359 0 
-344 -384 0 
-344 -392 0 
-344 -368 0 
-344 -354 0 
-344 -398 0 
-345 -405 0 
-345 -402 0 
-345 -401 0 
-345 -393 0 
-345 -388 0 
-345 -379 0 
-345 -362 0 
-345 -352 0 
-345 -346 0 
-345 -366 0 
-346 -366 0 
-346 -403 0 
-346 -363 0 
-346 -389 0 
-346 -401 0 
-346 -379 0 
-346 -352 0 
-347 -405 0 
-347 -393 0 
-347 -371 0 
-347 -364 0 
-347 -360 0 
-347 -372 0 
-347 -397 0 
-347 -399 0 
-347 -378 0 
-347 -370 0 
-347 -376 0 
-352 -405 0 
-352 -402 0 
-352 -393 0 
-352 -388 0 
-352 -379 0 
-352 -362 0 
-352 -401 0 
-352 -366 0 
-353 -411 0 
-353 -380 0 
-353 -377 0 
-353 -374 0 
-353 -369 0 
-353 -367 0 
-353 -400 0 
-353 -382 0 
-354 -392 0 
-354 -384 0 
-354 -359 0 
-354 -383 0 
-354 -368 0 
-354 -398 0 
-355 -371 0 
-355 -364 0 
-355 -402 0 
-355 -388 0 
-355 -362 0 
-355 -394 0 
-355 -361 0 
-355 -397 0 
-355 -399 0 
-355 -378 0 
-355 -370 0 
-355 -376 0 
-359 -384 0 
-359 -368 0 
-359 -383 0 
-359 -392 0 
-359 -398 0 
-360 -371 0 
-360 -364 0 
-360 -405 0 
-360 -372 0 
-360 -393 0 
-360 -397 0 
-360 -399 0 
-360 -378 0 
-360 -370 0 
-360 -376 0 
-361 -402 0 
-361 -399 0 
-361 -397 0 
-361 -394 0 
-361 -388 0 
-361 -378 0 
-361 -376 0 
-361 -370 0 
-361 -362 0 
-362 -394 0 
-362 -388 0 
-362 -379 0 
-362 -402 0 
-362 -401 0 
-363 -403 0 
-363 -389 0 
-364 -397 0 
-364 -403 0 
-364 -389 0 
-364 -394 0 
-364 -371 0 
-364 -386 0 
-364 -399 0 
-364 -378 0 
-364 -370 0 
-364 -376 0 
506 -511 0 
-506 -508 0 
-506 -510 0 
-506 -507 0 
-507 -510 0 
-507 -520 0 
-507 -508 0 
-507 -529 0 
-507 -511 0 
-508 -520 0 
-508 -511 0 
-508 -510 0 
-508 -529 0 
-509 -522 0 
-510 -520 0 
-510 -529 0 
-510 -511 0 
-511 -520 0 
-511 -529 0 
-512 -513 0 
-512 -517 0 
-512 -519 0 
-513 -517 0 
-513 -519 0 
-517 -519 0 
-520 -529 0 
-925 538 539 540 0 
-926 547 0 
-927 541 531 0 
-928 542 537 0 
-929 535 0 
-930 543 532 536 0 
-931 534 0 
-932 533 530 0 
-933 544 0 
-934 546 0 
-935 548 0 
-936 545 0 
-530 -540 0 
-530 -538 0 
-530 -539 0 
-530 -533 0 
-531 -536 0 
-531 -543 0 
-531 -532 0 
-531 -541 0 
-532 -537 0 
-532 -536 0 
-532 -541 0 
-532 -542 0 
-532 -543 0 
-533 -539 0 
-533 -538 0 
-536 -537 0 
-536 -543 0 
-537 -543 0 
-537 -542 0 
-538 -540 0 
-538 -539 0 
-539 -540 0 
-541 -543 0 
-542 -543 0 
-937 549 0 
-938 550 0 
-939 551 0 
552 0 
553 0 
554 0 
555 0 
556 0 
557 0 
558 0 
559 0 
560 0 
561 0 
562 0 
563 0 
564 0 
565 0 
566 0 
567 0 
568 0 
569 0 
570 0 
571 0 
572 0 
573 0 
574 0 
575 0 
576 0 
577 0 
578 0 
579 0 
580 0 
581 0 
582 0 
583 0 
584 0 
585 0 
586 0 
587 0 
588 0 
589 0 
590 0 
591 0 
939 0 
938 0 
937 0 
